\ LP format - for model browsing. Use MPS format to capture full model detail.
Minimize
  0.5 g_01 + 0.5 g_02 + 0.5 g_03 + 0.5 g_04 + 0.5 g_05 + 0.5 g_10 + 0.5 g_12
   + 0.5 g_13 + 0.5 g_14 + 0.5 g_15 + 0.5 g_20 + 0.5 g_21 + 0.5 g_23
   + 0.5 g_24 + 0.5 g_25 + 0.5 g_30 + 0.5 g_31 + 0.5 g_32 + 0.5 g_34
   + 0.5 g_35 + 0.5 g_40 + 0.5 g_41 + 0.5 g_42 + 0.5 g_43 + 0.5 g_45
   + 0.5 g_50 + 0.5 g_51 + 0.5 g_52 + 0.5 g_53 + 0.5 g_54 + g1surplus
   + g2slack
Subject To
 R0: - f_0 - f_1 + l_01 + l_10 + b_01 + b_10 >= -1
 R1: - f_0 - f_2 + l_02 + l_20 + b_02 + b_20 >= -1
 R2: - f_0 - f_3 + l_03 + l_30 + b_03 + b_30 >= -1
 R3: - f_0 - f_4 + l_04 + l_40 + b_04 + b_40 >= -1
 R4: - f_0 - f_5 + l_05 + l_50 + b_05 + b_50 >= -1
 R5: - f_0 - f_1 + l_01 + l_10 + b_01 + b_10 >= -1
 R6: - f_1 - f_2 + l_12 + l_21 + b_12 + b_21 >= -1
 R7: - f_1 - f_3 + l_13 + l_31 + b_13 + b_31 >= -1
 R8: - f_1 - f_4 + l_14 + l_41 + b_14 + b_41 >= -1
 R9: - f_1 - f_5 + l_15 + l_51 + b_15 + b_51 >= -1
 R10: - f_0 - f_2 + l_02 + l_20 + b_02 + b_20 >= -1
 R11: - f_1 - f_2 + l_12 + l_21 + b_12 + b_21 >= -1
 R12: - f_2 - f_3 + l_23 + l_32 + b_23 + b_32 >= -1
 R13: - f_2 - f_4 + l_24 + l_42 + b_24 + b_42 >= -1
 R14: - f_2 - f_5 + l_25 + l_52 + b_25 + b_52 >= -1
 R15: - f_0 - f_3 + l_03 + l_30 + b_03 + b_30 >= -1
 R16: - f_1 - f_3 + l_13 + l_31 + b_13 + b_31 >= -1
 R17: - f_2 - f_3 + l_23 + l_32 + b_23 + b_32 >= -1
 R18: - f_3 - f_4 + l_34 + l_43 + b_34 + b_43 >= -1
 R19: - f_3 - f_5 + l_35 + l_53 + b_35 + b_53 >= -1
 R20: - f_0 - f_4 + l_04 + l_40 + b_04 + b_40 >= -1
 R21: - f_1 - f_4 + l_14 + l_41 + b_14 + b_41 >= -1
 R22: - f_2 - f_4 + l_24 + l_42 + b_24 + b_42 >= -1
 R23: - f_3 - f_4 + l_34 + l_43 + b_34 + b_43 >= -1
 R24: - f_4 - f_5 + l_45 + l_54 + b_45 + b_54 >= -1
 R25: - f_0 - f_5 + l_05 + l_50 + b_05 + b_50 >= -1
 R26: - f_1 - f_5 + l_15 + l_51 + b_15 + b_51 >= -1
 R27: - f_2 - f_5 + l_25 + l_52 + b_25 + b_52 >= -1
 R28: - f_3 - f_5 + l_35 + l_53 + b_35 + b_53 >= -1
 R29: - f_4 - f_5 + l_45 + l_54 + b_45 + b_54 >= -1
 R30: x_0 - x_1 + 17 l_01 <= 13
 R31: x_0 - x_2 + 17 l_02 <= 13
 R32: x_0 - x_3 + 17 l_03 <= 13
 R33: x_0 - x_4 + 17 l_04 <= 13
 R34: x_0 - x_5 + 17 l_05 <= 13
 R35: - x_0 + x_1 + 17 l_10 <= 13
 R36: x_1 - x_2 + 17 l_12 <= 13
 R37: x_1 - x_3 + 17 l_13 <= 13
 R38: x_1 - x_4 + 17 l_14 <= 13
 R39: x_1 - x_5 + 17 l_15 <= 13
 R40: - x_0 + x_2 + 17 l_20 <= 11
 R41: - x_1 + x_2 + 17 l_21 <= 11
 R42: x_2 - x_3 + 17 l_23 <= 11
 R43: x_2 - x_4 + 17 l_24 <= 11
 R44: x_2 - x_5 + 17 l_25 <= 11
 R45: - x_0 + x_3 + 17 l_30 <= 12
 R46: - x_1 + x_3 + 17 l_31 <= 12
 R47: - x_2 + x_3 + 17 l_32 <= 12
 R48: x_3 - x_4 + 17 l_34 <= 12
 R49: x_3 - x_5 + 17 l_35 <= 12
 R50: - x_0 + x_4 + 17 l_40 <= 12
 R51: - x_1 + x_4 + 17 l_41 <= 12
 R52: - x_2 + x_4 + 17 l_42 <= 12
 R53: - x_3 + x_4 + 17 l_43 <= 12
 R54: x_4 - x_5 + 17 l_45 <= 12
 R55: - x_0 + x_5 + 17 l_50 <= 13
 R56: - x_1 + x_5 + 17 l_51 <= 13
 R57: - x_2 + x_5 + 17 l_52 <= 13
 R58: - x_3 + x_5 + 17 l_53 <= 13
 R59: - x_4 + x_5 + 17 l_54 <= 13
 R60: y_0 - y_1 + 12 b_01 <= 8
 R61: y_0 - y_2 + 12 b_02 <= 8
 R62: y_0 - y_3 + 12 b_03 <= 8
 R63: y_0 - y_4 + 12 b_04 <= 8
 R64: y_0 - y_5 + 12 b_05 <= 8
 R65: - y_0 + y_1 + 12 b_10 <= 8
 R66: y_1 - y_2 + 12 b_12 <= 8
 R67: y_1 - y_3 + 12 b_13 <= 8
 R68: y_1 - y_4 + 12 b_14 <= 8
 R69: y_1 - y_5 + 12 b_15 <= 8
 R70: - y_0 + y_2 + 12 b_20 <= 6
 R71: - y_1 + y_2 + 12 b_21 <= 6
 R72: y_2 - y_3 + 12 b_23 <= 6
 R73: y_2 - y_4 + 12 b_24 <= 6
 R74: y_2 - y_5 + 12 b_25 <= 6
 R75: - y_0 + y_3 + 12 b_30 <= 7
 R76: - y_1 + y_3 + 12 b_31 <= 7
 R77: - y_2 + y_3 + 12 b_32 <= 7
 R78: y_3 - y_4 + 12 b_34 <= 7
 R79: y_3 - y_5 + 12 b_35 <= 7
 R80: - y_0 + y_4 + 12 b_40 <= 7
 R81: - y_1 + y_4 + 12 b_41 <= 7
 R82: - y_2 + y_4 + 12 b_42 <= 7
 R83: - y_3 + y_4 + 12 b_43 <= 7
 R84: y_4 - y_5 + 12 b_45 <= 7
 R85: - y_0 + y_5 + 12 b_50 <= 8
 R86: - y_1 + y_5 + 12 b_51 <= 8
 R87: - y_2 + y_5 + 12 b_52 <= 8
 R88: - y_3 + y_5 + 12 b_53 <= 8
 R89: - y_4 + y_5 + 12 b_54 <= 8
 R90: x_0 >= 0
 R91: x_1 >= 0
 R92: x_2 >= 0
 R93: x_3 >= 0
 R94: x_4 >= 0
 R95: x_5 >= 0
 R96: x_0 <= 13
 R97: x_1 <= 13
 R98: x_2 <= 11
 R99: x_3 <= 12
 R100: x_4 <= 12
 R101: x_5 <= 13
 R102: y_0 >= 0
 R103: y_1 >= 0
 R104: y_2 >= 0
 R105: y_3 >= 0
 R106: y_4 >= 0
 R107: y_5 >= 0
 R108: y_0 <= 8
 R109: y_1 <= 8
 R110: y_2 <= 6
 R111: y_3 <= 7
 R112: y_4 <= 7
 R113: y_5 <= 8
 R114: - 16 f_0 - 16 f_1 - 36 f_2 - 25 f_3 - 25 f_4 - 16 f_5 - g1surplus
   + g1slack = -184
 R115: - 16 f_0 - 16 f_1 - 36 f_2 - 25 f_3 - 25 f_4 - 16 f_5 - g1surplus
   + g1slack = -184
 R116: - 16 f_0 - 16 f_1 - 36 f_2 - 25 f_3 - 25 f_4 - 16 f_5 - g1surplus
   + g1slack = -184
 R117: - 16 f_0 - 16 f_1 - 36 f_2 - 25 f_3 - 25 f_4 - 16 f_5 - g1surplus
   + g1slack = -184
 R118: - 16 f_0 - 16 f_1 - 36 f_2 - 25 f_3 - 25 f_4 - 16 f_5 - g1surplus
   + g1slack = -184
 R119: - 16 f_0 - 16 f_1 - 36 f_2 - 25 f_3 - 25 f_4 - 16 f_5 - g1surplus
   + g1slack = -184
 R120: 8 f_0 + 8 f_1 + 16 f_2 + 12 f_3 + 12 f_4 + 8 f_5 - g2surplus
   + g2slack = 100
 R121: 8 f_0 + 8 f_1 + 16 f_2 + 12 f_3 + 12 f_4 + 8 f_5 - g2surplus
   + g2slack = 100
 R122: 8 f_0 + 8 f_1 + 16 f_2 + 12 f_3 + 12 f_4 + 8 f_5 - g2surplus
   + g2slack = 100
 R123: 8 f_0 + 8 f_1 + 16 f_2 + 12 f_3 + 12 f_4 + 8 f_5 - g2surplus
   + g2slack = 100
 R124: 8 f_0 + 8 f_1 + 16 f_2 + 12 f_3 + 12 f_4 + 8 f_5 - g2surplus
   + g2slack = 100
 R125: 8 f_0 + 8 f_1 + 16 f_2 + 12 f_3 + 12 f_4 + 8 f_5 - g2surplus
   + g2slack = 100
 R126: - f_0 - f_1 + g_01 >= -1
 R127: - f_0 - f_2 + g_02 >= -1
 R128: - f_0 - f_3 + g_03 >= -1
 R129: - f_0 - f_4 + g_04 >= -1
 R130: - f_0 - f_5 + g_05 >= -1
 R131: - f_0 - f_1 + g_10 >= -1
 R132: - f_1 - f_2 + g_12 >= -1
 R133: - f_1 - f_3 + g_13 >= -1
 R134: - f_1 - f_4 + g_14 >= -1
 R135: - f_1 - f_5 + g_15 >= -1
 R136: - f_0 - f_2 + g_20 >= -1
 R137: - f_1 - f_2 + g_21 >= -1
 R138: - f_2 - f_3 + g_23 >= -1
 R139: - f_2 - f_4 + g_24 >= -1
 R140: - f_2 - f_5 + g_25 >= -1
 R141: - f_0 - f_3 + g_30 >= -1
 R142: - f_1 - f_3 + g_31 >= -1
 R143: - f_2 - f_3 + g_32 >= -1
 R144: - f_3 - f_4 + g_34 >= -1
 R145: - f_3 - f_5 + g_35 >= -1
 R146: - f_0 - f_4 + g_40 >= -1
 R147: - f_1 - f_4 + g_41 >= -1
 R148: - f_2 - f_4 + g_42 >= -1
 R149: - f_3 - f_4 + g_43 >= -1
 R150: - f_4 - f_5 + g_45 >= -1
 R151: - f_0 - f_5 + g_50 >= -1
 R152: - f_1 - f_5 + g_51 >= -1
 R153: - f_2 - f_5 + g_52 >= -1
 R154: - f_3 - f_5 + g_53 >= -1
 R155: - f_4 - f_5 + g_54 >= -1
Bounds
Binaries
 f_0 f_1 f_2 f_3 f_4 f_5 l_01 l_02 l_03 l_04 l_05 l_10 l_12 l_13 l_14 l_15
 l_20 l_21 l_23 l_24 l_25 l_30 l_31 l_32 l_34 l_35 l_40 l_41 l_42 l_43 l_45
 l_50 l_51 l_52 l_53 l_54 b_01 b_02 b_03 b_04 b_05 b_10 b_12 b_13 b_14 b_15
 b_20 b_21 b_23 b_24 b_25 b_30 b_31 b_32 b_34 b_35 b_40 b_41 b_42 b_43 b_45
 b_50 b_51 b_52 b_53 b_54 g_01 g_02 g_03 g_04 g_05 g_10 g_12 g_13 g_14 g_15
 g_20 g_21 g_23 g_24 g_25 g_30 g_31 g_32 g_34 g_35 g_40 g_41 g_42 g_43 g_45
 g_50 g_51 g_52 g_53 g_54
End
